W=7;
H=7;

MAX_TIME=42;
MAX_TRACKS=10;

TARGET=(4,7);

TRAINS=[(4,4,LEFT),(1,1,DOWN)];
DECOYS=[];

INIT_POS=[
(1,1,STRAIGHT_TD),
(2,1,CORNER_TR),
(2,2,STRAIGHT_RL),
(4,4,STRAIGHT_RL),
(4,7,STRAIGHT_RL),
(7,2,CORNER_TR),
];
TUNNEL_PAIRS=[
  (1, 4, DOWN, 6, 4, LEFT),
];

GATES=[
(2,2,1,false),
];
ACTIVATIONS=[
(7,2,1),
];

DSWITCHES=[];

STATIONS=[];
